17
39
40
55
73
32
51
28
61
27
54
19
30
38
29
14
5
1
25
3
43
72
56
22
59
10
70
35
68
24
58
50
37
21
49
60
25
63
47
31
53
2
18
20
12
41
8
15
48
45
23
26
7
64
57
33
6
10
42
44
46
16
36
69
62
17
4
34
9
65
11
9
71
12
13
66
52
67
